(set-logic QF_SLIA)
(declare-const a String)
(assert (= (str.from_int (str.to_code a)) a))
(assert (= (str.len a) 1))
(check-sat)
(reset)
(set-logic QF_SLIA)
(declare-const a String)
(assert (= (str.from_int (str.to_code a)) a))
(assert (> (str.len a) 1))
(check-sat)
(reset)
(set-logic QF_SLIA)
(declare-const a String)
(assert (= (str.from_int (str.to_code a)) a))
(assert (>= (str.len a) 1))
(check-sat)
